(declare-fun var0 () String)
(assert (RegexIn var0 (RegexConcat (RegexStar (RegexStar (Str2Reg "---"))) (RegexConcat (RegexStar (RegexUnion (Str2Reg "+++") (Str2Reg ","))) (RegexConcat (RegexStar (RegexUnion (Str2Reg "))") (Str2Reg "*"))) (RegexConcat (RegexPlus (RegexPlus (Str2Reg "("))) (RegexConcat (RegexUnion (RegexUnion (Str2Reg "%") (Str2Reg "&")) (RegexPlus (Str2Reg "'"))) (RegexConcat (RegexPlus (RegexUnion (Str2Reg "#") (Str2Reg "$$"))) (RegexConcat (RegexStar (RegexUnion (Str2Reg "!!!") (Str2Reg "\"\""))) (RegexConcat (RegexPlus (RegexStar (Str2Reg "ZZZ"))) (RegexConcat (RegexPlus (RegexUnion (Str2Reg "XXX") (Str2Reg "YY"))) (RegexConcat (RegexPlus (RegexUnion (Str2Reg "VVV") (Str2Reg "W"))) (RegexConcat (RegexPlus (RegexPlus (Str2Reg "UU"))) (RegexConcat (RegexStar (RegexStar (Str2Reg "T"))) (RegexConcat (RegexUnion (RegexStar (Str2Reg "RRR")) (RegexStar (Str2Reg "S"))) (RegexConcat (RegexPlus (RegexUnion (Str2Reg "PPP") (Str2Reg "QQQ"))) (RegexConcat (RegexPlus (RegexStar (Str2Reg "O"))) (RegexConcat (RegexPlus (RegexPlus (Str2Reg "N"))) (RegexConcat (RegexPlus (RegexUnion (Str2Reg "LL") (Str2Reg "M"))) (RegexConcat (RegexPlus (RegexStar (Str2Reg "KKK"))) (RegexConcat (RegexStar (RegexUnion (Str2Reg "II") (Str2Reg "JJ"))) (RegexConcat (RegexStar (RegexUnion (Str2Reg "G") (Str2Reg "HHH"))) (RegexConcat (RegexUnion (RegexStar (Str2Reg "EEE")) (RegexStar (Str2Reg "F"))) (RegexConcat (RegexStar (RegexUnion (Str2Reg "CCC") (Str2Reg "DDD"))) (RegexConcat (RegexPlus (RegexStar (Str2Reg "BB"))) (RegexConcat (RegexPlus (RegexPlus (Str2Reg "AAA"))) (RegexConcat (RegexUnion (RegexStar (Str2Reg "y")) (RegexStar (Str2Reg "zz"))) (RegexConcat (RegexUnion (RegexStar (Str2Reg "ww")) (RegexPlus (Str2Reg "xxx"))) (RegexConcat (RegexPlus (RegexPlus (Str2Reg "vv"))) (RegexConcat (RegexUnion (RegexStar (Str2Reg "ttt")) (RegexStar (Str2Reg "uu"))) (RegexConcat (RegexUnion (RegexStar (Str2Reg "r")) (RegexPlus (Str2Reg "s"))) (RegexConcat (RegexUnion (RegexPlus (Str2Reg "ppp")) (RegexPlus (Str2Reg "q"))) (RegexConcat (RegexPlus (RegexPlus (Str2Reg "oo"))) (RegexConcat (RegexUnion (RegexStar (Str2Reg "ll")) (RegexUnion (Str2Reg "mmm") (Str2Reg "nnn"))) (RegexConcat (RegexStar (RegexPlus (Str2Reg "kk"))) (RegexConcat (RegexPlus (RegexStar (Str2Reg "jjj"))) (RegexConcat (RegexStar (RegexStar (Str2Reg "ii"))) (RegexConcat (RegexUnion (RegexPlus (Str2Reg "ff")) (RegexUnion (Str2Reg "ggg") (Str2Reg "h"))) (RegexConcat (RegexUnion (RegexStar (Str2Reg "dd")) (RegexStar (Str2Reg "e"))) (RegexConcat (RegexPlus (RegexStar (Str2Reg "ccc"))) (RegexConcat (RegexUnion (RegexUnion (Str2Reg "9") (Str2Reg "aaa")) (RegexPlus (Str2Reg "bb"))) (RegexConcat (RegexPlus (RegexPlus (Str2Reg "8"))) (RegexConcat (RegexUnion (RegexStar (Str2Reg "666")) (RegexStar (Str2Reg "77"))) (RegexConcat (RegexUnion (RegexUnion (Str2Reg "3") (Str2Reg "444")) (RegexPlus (Str2Reg "5"))) (RegexConcat (RegexPlus (RegexPlus (Str2Reg "22"))) (RegexConcat (RegexStar (RegexStar (Str2Reg "11"))) (RegexPlus (RegexPlus (Str2Reg "000")))))))))))))))))))))))))))))))))))))))))))))))))
(check-sat)